c leafs=72, vars=18, seed=1, tickle=None
p cnf 817 2182                                                                
e 19 20 21 22 23 24 25 26 27 28 29 30 31 32 33 34 35 36 37 38 39 40 41 42 43 44 45 46 47 48 49 50 51 52 53 54 55 56 57 58 59 60 61 62 63 64 65 66 67 68 69 70 71 72 73 74 75 76 77 78 79 80 81 82 83 84 85 86 87 88 89 90  0
a 1 2 3 4 5 6 7 8 9 10 11 12 13 14 15 16 17 18  0
e 91 92 93 94 95 96 97 98 99 100 101 102 103 104 105 106 107 108 109 110 111 112 113 114 115 116 117 118 119 120 121 122 123 124 125 126 127 128 129 130 131 132 133 134 135 136 137 138 139 140 141 142 143 144 145 146 147 148 149 150 151 152 153 154 155 156 157 158 159 160 161 162 163 164 165 166 167 168 169 170 171 172 173 174 175 176 177 178 179 180 181 182 183 184 185 186 187 188 189 190 191 192 193 194 195 196 197 198 199 200 201 202 203 204 205 206 207 208 209 210 211 212 213 214 215 216 217 218 219 220 221 222 223 224 225 226 227 228 229 230 231 232 233 234 235 236 237 238 239 240 241 242 243 244 245 246 247 248 249 250 251 252 253 254 255 256 257 258 259 260 261 262 263 264 265 266 267 268 269 270 271 272 273 274 275 276 277 278 279 280 281 282 283 284 285 286 287 288 289 290 291 292 293 294 295 296 297 298 299 300 301 302 303 304 305 306 307 308 309 310 311 312 313 314 315 316 317 318 319 320 321 322 323 324 325 326 327 328 329 330 331 332 333 334 335 336 337 338 339 340 341 342 343 344 345 346 347 348 349 350 351 352 353 354 355 356 357 358 359 360 361 362 363 364 365 366 367 368 369 370 371 372 373 374 375 376 377 378 379 380 381 382 383 384 385 386 387 388 389 390 391 392 393 394 395 396 397 398 399 400 401 402 403 404 405 406 407 408 409 410 411 412 413 414 415 416 417 418 419 420 421 422 423 424 425 426 427 428 429 430 431 432 433 434 435 436 437 438 439 440 441 442 443 444 445 446 447 448 449 450 451 452 453 454 455 456 457 458 459 460 461 462 463 464 465 466 467 468 469 470 471 472 473 474 475 476 477 478 479 480 481 482 483 484 485 486 487 488 489 490 491 492 493 494 495 496 497 498 499 500 501 502 503 504 505 506 507 508 509 510 511 512 513 514 515 516 517 518 519 520 521 522 523 524 525 526 527 528 529 530 531 532 533 534 535 536 537 538 539 540 541 542 543 544 545 546 547 548 549 550 551 552 553 554 555 556 557 558 559 560 561 562 563 564 565 566 567 568 569 570 571 572 573 574 575 576 577 578 579 580 581 582 583 584 585 586 587 588 589 590 591 592 593 594 595 596 597 598 599 600 601 602 603 604 605 606 607 608 609 610 611 612 613 614 615 616 617 618 619 620 621 622 623 624 625 626 627 628 629 630 631 632 633 634 635 636 637 638 639 640 641 642 643 644 645 646 647 648 649 650 651 652 653 654 655 656 657 658 659 660 661 662 663 664 665 666 667 668 669 670 671 672 673 674 675 676 677 678 679 680 681 682 683 684 685 686 687 688 689 690 691 692 693 694 695 696 697 698 699 700 701 702 703 704 705 706 707 708 709 710 711 712 713 714 715 716 717 718 719 720 721 722 723 724 725 726 727 728 729 730 731 732 733 734 735 736 737 738 739 740 741 742 743 744 745 746 747 748 749 750 751 752 753 754 755 756 757 758 759 760 761 762 763 764 765 766 767 768 769 770 771 772 773 774 775 776 777 778 779 780 781 782 783 784 785 786 787 788 789 790 791 792 793 794 795 796 797 798 799 800 801 802 803 804 805 806 807 808 809 810 811 812 813 814 815 816 817  0
817  0
91 11 -63  0
-91 -11  0
-91 63  0
92 63 16  0
-92 -63  0
-92 -16  0
93 62 3  0
-93 -62  0
-93 -3  0
94 -15 -62  0
-94 15  0
-94 62  0
95 -6 -61  0
-95 6  0
-95 61  0
96 61 12  0
-96 -61  0
-96 -12  0
97 59 18  0
-97 -59  0
-97 -18  0
98 7 -59  0
-98 -7  0
-98 59  0
99 60 15  0
-99 -60  0
-99 -15  0
100 11 -60  0
-100 -11  0
-100 60  0
-101 10 58  0
101 -10  0
101 -58  0
-102 -58 -4  0
102 58  0
102 4  0
-103 -57 4  0
103 57  0
103 -4  0
-104 13 57  0
104 -13  0
104 -57  0
-105 6 55  0
105 -6  0
105 -55  0
-106 -55 3  0
106 55  0
106 -3  0
-107 5 56  0
107 -5  0
107 -56  0
-108 -56 -11  0
108 56  0
108 11  0
109 -17 -64  0
-109 17  0
-109 64  0
110 64 -11  0
-110 -64  0
-110 11  0
111 1 -65  0
-111 -1  0
-111 65  0
112 65 -14  0
-112 -65  0
-112 14  0
113 66 8  0
-113 -66  0
-113 -8  0
114 -12 -66  0
-114 12  0
-114 66  0
115 67 -15  0
-115 -67  0
-115 15  0
116 -5 -67  0
-116 5  0
-116 67  0
117 -17 -71  0
-117 17  0
-117 71  0
118 71 5  0
-118 -71  0
-118 -5  0
119 72 2  0
-119 -72  0
-119 -2  0
120 8 -72  0
-120 -8  0
-120 72  0
121 14 -68  0
-121 -14  0
-121 68  0
122 68 15  0
-122 -68  0
-122 -15  0
123 69 10  0
-123 -69  0
-123 -10  0
124 13 -69  0
-124 -13  0
-124 69  0
125 11 -70  0
-125 -11  0
-125 70  0
126 70 7  0
-126 -70  0
-126 -7  0
127 -8 -74  0
-127 8  0
-127 74  0
128 74 -7  0
-128 -74  0
-128 7  0
129 -15 -73  0
-129 15  0
-129 73  0
130 73 18  0
-130 -73  0
-130 -18  0
-131 -15 75  0
131 15  0
131 -75  0
-132 -75 -3  0
132 75  0
132 3  0
-133 -76 4  0
133 76  0
133 -4  0
-134 -2 76  0
134 2  0
134 -76  0
-135 -16 77  0
135 16  0
135 -77  0
-136 -77 -12  0
136 77  0
136 12  0
137 10 -81  0
-137 -10  0
-137 81  0
138 81 14  0
-138 -81  0
-138 -14  0
139 -11 -80  0
-139 11  0
-139 80  0
140 80 4  0
-140 -80  0
-140 -4  0
141 78 -8  0
-141 -78  0
-141 8  0
142 2 -78  0
-142 -2  0
-142 78  0
143 79 13  0
-143 -79  0
-143 -13  0
144 17 -79  0
-144 -17  0
-144 79  0
145 -9 -86  0
-145 9  0
-145 86  0
146 86 8  0
-146 -86  0
-146 -8  0
147 10 -85  0
-147 -10  0
-147 85  0
148 85 -5  0
-148 -85  0
-148 5  0
149 83 7  0
-149 -83  0
-149 -7  0
150 8 -83  0
-150 -8  0
-150 83  0
151 84 -3  0
-151 -84  0
-151 3  0
152 8 -84  0
-152 -8  0
-152 84  0
153 82 -4  0
-153 -82  0
-153 4  0
154 -13 -82  0
-154 13  0
-154 82  0
-155 -90 6  0
155 90  0
155 -6  0
-156 14 90  0
156 -14  0
156 -90  0
-157 6 89  0
157 -6  0
157 -89  0
-158 -89 7  0
158 89  0
158 -7  0
159 87 11  0
-159 -87  0
-159 -11  0
160 10 -87  0
-160 -10  0
-160 87  0
161 88 -15  0
-161 -88  0
-161 15  0
162 -13 -88  0
-162 13  0
-162 88  0
-163 7 27  0
163 -7  0
163 -27  0
-164 -27 -14  0
164 27  0
164 14  0
-165 -5 26  0
165 5  0
165 -26  0
-166 -26 -9  0
166 26  0
166 9  0
-167 -25 8  0
167 25  0
167 -8  0
-168 -12 25  0
168 12  0
168 -25  0
-169 1 24  0
169 -1  0
169 -24  0
-170 -24 15  0
170 24  0
170 -15  0
171 21 -13  0
-171 -21  0
-171 13  0
172 8 -21  0
-172 -8  0
-172 21  0
173 -7 -20  0
-173 7  0
-173 20  0
174 20 -8  0
-174 -20  0
-174 8  0
175 16 -19  0
-175 -16  0
-175 19  0
176 19 9  0
-176 -19  0
-176 -9  0
177 1 -22  0
-177 -1  0
-177 22  0
178 22 -9  0
-178 -22  0
-178 9  0
179 23 6  0
-179 -23  0
-179 -6  0
180 11 -23  0
-180 -11  0
-180 23  0
-181 -30 -17  0
181 30  0
181 17  0
-182 -11 30  0
182 11  0
182 -30  0
-183 -31 3  0
183 31  0
183 -3  0
-184 18 31  0
184 -18  0
184 -31  0
-185 -32 -11  0
185 32  0
185 11  0
-186 -5 32  0
186 5  0
186 -32  0
-187 -28 -4  0
187 28  0
187 4  0
-188 11 28  0
188 -11  0
188 -28  0
-189 2 29  0
189 -2  0
189 -29  0
-190 -29 -15  0
190 29  0
190 15  0
191 3 -36  0
-191 -3  0
-191 36  0
192 36 6  0
-192 -36  0
-192 -6  0
193 -4 -35  0
-193 4  0
-193 35  0
194 35 5  0
-194 -35  0
-194 -5  0
-195 -2 33  0
195 2  0
195 -33  0
-196 -33 -12  0
196 33  0
196 12  0
-197 -2 34  0
197 2  0
197 -34  0
-198 -34 -18  0
198 34  0
198 18  0
-199 -42 -5  0
199 42  0
199 5  0
-200 -7 42  0
200 7  0
200 -42  0
-201 2 43  0
201 -2  0
201 -43  0
-202 -43 -16  0
202 43  0
202 16  0
203 44 4  0
-203 -44  0
-203 -4  0
204 8 -44  0
-204 -8  0
-204 44  0
205 45 17  0
-205 -45  0
-205 -17  0
206 9 -45  0
-206 -9  0
-206 45  0
207 -2 -39  0
-207 2  0
-207 39  0
208 39 3  0
-208 -39  0
-208 -3  0
209 37 -16  0
-209 -37  0
-209 16  0
210 -14 -37  0
-210 14  0
-210 37  0
211 38 11  0
-211 -38  0
-211 -11  0
212 14 -38  0
-212 -14  0
-212 38  0
-213 -12 41  0
213 12  0
213 -41  0
-214 -41 -4  0
214 41  0
214 4  0
-215 -3 40  0
215 3  0
215 -40  0
-216 -40 -5  0
216 40  0
216 5  0
217 48 -1  0
-217 -48  0
-217 1  0
218 -17 -48  0
-218 17  0
-218 48  0
219 -2 -49  0
-219 2  0
-219 49  0
220 49 9  0
-220 -49  0
-220 -9  0
221 50 -15  0
-221 -50  0
-221 15  0
222 -14 -50  0
-222 14  0
-222 50  0
-223 -5 47  0
223 5  0
223 -47  0
-224 -47 11  0
224 47  0
224 -11  0
-225 -46 17  0
225 46  0
225 -17  0
-226 18 46  0
226 -18  0
226 -46  0
-227 -11 52  0
227 11  0
227 -52  0
-228 -52 -3  0
228 52  0
228 3  0
-229 7 51  0
229 -7  0
229 -51  0
-230 -51 2  0
230 51  0
230 -2  0
-231 10 54  0
231 -10  0
231 -54  0
-232 -54 -1  0
232 54  0
232 1  0
-233 -53 16  0
233 53  0
233 -16  0
-234 4 53  0
234 -4  0
234 -53  0
-235 -16 -3  0
235 16  0
235 3  0
236 -6 -11  0
-236 6  0
-236 11  0
237 11 6  0
-237 -11  0
-237 -6  0
238 11 -6  0
-238 -11  0
-238 6  0
239 6 -11  0
-239 -6  0
-239 11  0
240 13 11  0
-240 -13  0
-240 -11  0
241 -11 -13  0
-241 11  0
-241 13  0
-242 1 11  0
242 -1  0
242 -11  0
-243 -11 -1  0
243 11  0
243 1  0
244 16 -7  0
-244 -16  0
-244 7  0
245 12 -18  0
-245 -12  0
-245 18  0
246 18 -12  0
-246 -18  0
-246 12  0
247 -4 -6  0
-247 4  0
-247 6  0
248 6 4  0
-248 -6  0
-248 -4  0
249 17 5  0
-249 -17  0
-249 -5  0
250 -5 -17  0
-250 5  0
-250 17  0
251 18 -17  0
-251 -18  0
-251 17  0
252 -8 -15  0
-252 8  0
-252 15  0
253 15 8  0
-253 -15  0
-253 -8  0
254 18 -11  0
-254 -18  0
-254 11  0
255 11 -18  0
-255 -11  0
-255 18  0
256 9 -1  0
-256 -9  0
-256 1  0
257 -11 -18  0
-257 11  0
-257 18  0
258 18 11  0
-258 -18  0
-258 -11  0
259 16 1  0
-259 -16  0
-259 -1  0
260 -1 -16  0
-260 1  0
-260 16  0
-261 -16 11  0
261 16  0
261 -11  0
262 17 8  0
-262 -17  0
-262 -8  0
263 -8 -17  0
-263 8  0
-263 17  0
-264 -7 3  0
264 7  0
264 -3  0
-265 -10 8  0
265 10  0
265 -8  0
-266 -8 10  0
266 8  0
266 -10  0
-267 -18 7  0
267 18  0
267 -7  0
-268 -7 18  0
268 7  0
268 -18  0
-269 -3 -2  0
269 3  0
269 2  0
-270 7 18  0
270 -7  0
270 -18  0
-271 -18 -7  0
271 18  0
271 7  0
-272 4 14  0
272 -4  0
272 -14  0
-273 -14 -4  0
273 14  0
273 4  0
-274 -5 2  0
274 5  0
274 -2  0
-275 -2 5  0
275 2  0
275 -5  0
-276 -13 11  0
276 13  0
276 -11  0
-277 -11 13  0
277 11  0
277 -13  0
278 4 -6  0
-278 -4  0
-278 6  0
279 6 -4  0
-279 -6  0
-279 4  0
280 -12 -18  0
-280 12  0
-280 18  0
281 18 12  0
-281 -18  0
-281 -12  0
282 11 -1  0
-282 -11  0
-282 1  0
283 1 -11  0
-283 -1  0
-283 11  0
-284 91 92  0
284 -91  0
284 -92  0
-285 93 94  0
285 -93  0
285 -94  0
-286 95 96  0
286 -95  0
286 -96  0
-287 97 98  0
287 -97  0
287 -98  0
-288 99 100  0
288 -99  0
288 -100  0
289 -101 -102  0
-289 101  0
-289 102  0
290 -103 -104  0
-290 103  0
-290 104  0
291 -105 -106  0
-291 105  0
-291 106  0
292 -107 -108  0
-292 107  0
-292 108  0
-293 109 110  0
293 -109  0
293 -110  0
-294 111 112  0
294 -111  0
294 -112  0
-295 113 114  0
295 -113  0
295 -114  0
-296 115 116  0
296 -115  0
296 -116  0
-297 117 118  0
297 -117  0
297 -118  0
-298 119 120  0
298 -119  0
298 -120  0
-299 121 122  0
299 -121  0
299 -122  0
-300 123 124  0
300 -123  0
300 -124  0
-301 125 126  0
301 -125  0
301 -126  0
-302 127 128  0
302 -127  0
302 -128  0
-303 129 130  0
303 -129  0
303 -130  0
304 -131 -132  0
-304 131  0
-304 132  0
305 -133 -134  0
-305 133  0
-305 134  0
306 -135 -136  0
-306 135  0
-306 136  0
-307 137 138  0
307 -137  0
307 -138  0
-308 139 140  0
308 -139  0
308 -140  0
-309 141 142  0
309 -141  0
309 -142  0
-310 143 144  0
310 -143  0
310 -144  0
-311 145 146  0
311 -145  0
311 -146  0
-312 147 148  0
312 -147  0
312 -148  0
-313 149 150  0
313 -149  0
313 -150  0
-314 151 152  0
314 -151  0
314 -152  0
-315 153 154  0
315 -153  0
315 -154  0
316 -155 -156  0
-316 155  0
-316 156  0
317 -157 -158  0
-317 157  0
-317 158  0
-318 159 160  0
318 -159  0
318 -160  0
-319 161 162  0
319 -161  0
319 -162  0
320 -163 -164  0
-320 163  0
-320 164  0
321 -165 -166  0
-321 165  0
-321 166  0
322 -167 -168  0
-322 167  0
-322 168  0
323 -169 -170  0
-323 169  0
-323 170  0
-324 171 172  0
324 -171  0
324 -172  0
-325 173 174  0
325 -173  0
325 -174  0
-326 175 176  0
326 -175  0
326 -176  0
-327 177 178  0
327 -177  0
327 -178  0
-328 179 180  0
328 -179  0
328 -180  0
329 -181 -182  0
-329 181  0
-329 182  0
330 -183 -184  0
-330 183  0
-330 184  0
331 -185 -186  0
-331 185  0
-331 186  0
332 -187 -188  0
-332 187  0
-332 188  0
333 -189 -190  0
-333 189  0
-333 190  0
-334 191 192  0
334 -191  0
334 -192  0
-335 193 194  0
335 -193  0
335 -194  0
336 -195 -196  0
-336 195  0
-336 196  0
337 -197 -198  0
-337 197  0
-337 198  0
338 -199 -200  0
-338 199  0
-338 200  0
339 -201 -202  0
-339 201  0
-339 202  0
-340 203 204  0
340 -203  0
340 -204  0
-341 205 206  0
341 -205  0
341 -206  0
-342 207 208  0
342 -207  0
342 -208  0
-343 209 210  0
343 -209  0
343 -210  0
-344 211 212  0
344 -211  0
344 -212  0
345 -213 -214  0
-345 213  0
-345 214  0
346 -215 -216  0
-346 215  0
-346 216  0
-347 217 218  0
347 -217  0
347 -218  0
-348 219 220  0
348 -219  0
348 -220  0
-349 221 222  0
349 -221  0
349 -222  0
350 -223 -224  0
-350 223  0
-350 224  0
351 -225 -226  0
-351 225  0
-351 226  0
352 -227 -228  0
-352 227  0
-352 228  0
353 -229 -230  0
-353 229  0
-353 230  0
354 -231 -232  0
-354 231  0
-354 232  0
355 -233 -234  0
-355 233  0
-355 234  0
-356 236 237  0
356 -236  0
356 -237  0
-357 238 239  0
357 -238  0
357 -239  0
-358 240 241  0
358 -240  0
358 -241  0
359 -242 -243  0
-359 242  0
-359 243  0
-360 245 246  0
360 -245  0
360 -246  0
-361 247 248  0
361 -247  0
361 -248  0
-362 249 250  0
362 -249  0
362 -250  0
-363 252 253  0
363 -252  0
363 -253  0
-364 254 255  0
364 -254  0
364 -255  0
365 -14 -256  0
-365 14  0
-365 256  0
366 14 256  0
-366 -14  0
-366 -256  0
-367 257 258  0
367 -257  0
367 -258  0
-368 259 260  0
368 -259  0
368 -260  0
369 -2 -261  0
-369 2  0
-369 261  0
370 2 261  0
-370 -2  0
-370 -261  0
-371 262 263  0
371 -262  0
371 -263  0
372 -265 -266  0
-372 265  0
-372 266  0
373 -267 -268  0
-373 267  0
-373 268  0
374 -270 -271  0
-374 270  0
-374 271  0
375 -272 -273  0
-375 272  0
-375 273  0
376 -274 -275  0
-376 274  0
-376 275  0
377 -276 -277  0
-377 276  0
-377 277  0
-378 278 279  0
378 -278  0
378 -279  0
-379 280 281  0
379 -280  0
379 -281  0
-380 282 283  0
380 -282  0
380 -283  0
-381 284 285  0
381 -284  0
381 -285  0
382 -287 -288  0
-382 287  0
-382 288  0
383 288 287  0
-383 -288  0
-383 -287  0
384 -289 -290  0
-384 289  0
-384 290  0
385 289 290  0
-385 -289  0
-385 -290  0
386 -291 -292  0
-386 291  0
-386 292  0
387 292 291  0
-387 -292  0
-387 -291  0
-388 293 294  0
388 -293  0
388 -294  0
-389 -294 -293  0
389 294  0
389 293  0
-390 295 296  0
390 -295  0
390 -296  0
-391 -296 -295  0
391 296  0
391 295  0
-392 297 298  0
392 -297  0
392 -298  0
-393 -298 -297  0
393 298  0
393 297  0
-394 300 301  0
394 -300  0
394 -301  0
-395 302 303  0
395 -302  0
395 -303  0
-396 -302 -303  0
396 302  0
396 303  0
-397 304 305  0
397 -304  0
397 -305  0
-398 307 308  0
398 -307  0
398 -308  0
-399 -308 -307  0
399 308  0
399 307  0
-400 309 310  0
400 -309  0
400 -310  0
-401 -309 -310  0
401 309  0
401 310  0
402 -311 -312  0
-402 311  0
-402 312  0
403 311 312  0
-403 -311  0
-403 -312  0
-404 313 314  0
404 -313  0
404 -314  0
405 -316 -317  0
-405 316  0
-405 317  0
406 317 316  0
-406 -317  0
-406 -316  0
407 -318 -319  0
-407 318  0
-407 319  0
408 319 318  0
-408 -319  0
-408 -318  0
409 -320 -321  0
-409 320  0
-409 321  0
410 320 321  0
-410 -320  0
-410 -321  0
411 -322 -323  0
-411 322  0
-411 323  0
412 322 323  0
-412 -322  0
-412 -323  0
413 -325 -326  0
-413 325  0
-413 326  0
414 -327 -328  0
-414 327  0
-414 328  0
415 327 328  0
-415 -327  0
-415 -328  0
416 -330 -331  0
-416 330  0
-416 331  0
417 -332 -333  0
-417 332  0
-417 333  0
418 332 333  0
-418 -332  0
-418 -333  0
419 -334 -335  0
-419 334  0
-419 335  0
420 334 335  0
-420 -334  0
-420 -335  0
421 -336 -337  0
-421 336  0
-421 337  0
422 337 336  0
-422 -337  0
-422 -336  0
423 -338 -339  0
-423 338  0
-423 339  0
424 338 339  0
-424 -338  0
-424 -339  0
425 -340 -341  0
-425 340  0
-425 341  0
426 341 340  0
-426 -341  0
-426 -340  0
427 -343 -344  0
-427 343  0
-427 344  0
428 -345 -346  0
-428 345  0
-428 346  0
429 346 345  0
-429 -346  0
-429 -345  0
430 -347 -348  0
-430 347  0
-430 348  0
431 -350 -351  0
-431 350  0
-431 351  0
432 351 350  0
-432 -351  0
-432 -350  0
433 -352 -353  0
-433 352  0
-433 353  0
434 352 353  0
-434 -352  0
-434 -353  0
435 -354 -355  0
-435 354  0
-435 355  0
436 354 355  0
-436 -354  0
-436 -355  0
437 10 -356  0
-437 -10  0
-437 356  0
438 -10 -356  0
-438 10  0
-438 356  0
-439 -10 357  0
439 10  0
439 -357  0
-440 10 357  0
440 -10  0
440 -357  0
-441 360 361  0
441 -360  0
441 -361  0
442 -18 -362  0
-442 18  0
-442 362  0
443 -7 -363  0
-443 7  0
-443 363  0
444 7 -363  0
-444 -7  0
-444 363  0
-445 -1 364  0
445 1  0
445 -364  0
-446 1 364  0
446 -1  0
446 -364  0
447 -9 -364  0
-447 9  0
-447 364  0
-448 365 366  0
448 -365  0
448 -366  0
-449 369 370  0
449 -369  0
449 -370  0
450 13 -372  0
-450 -13  0
-450 372  0
451 -13 -372  0
-451 13  0
-451 372  0
452 -12 -373  0
-452 12  0
-452 373  0
453 12 -373  0
-453 -12  0
-453 373  0
-454 12 374  0
454 -12  0
454 -374  0
-455 -12 374  0
455 12  0
455 -374  0
-456 11 363  0
456 -11  0
456 -363  0
-457 -11 363  0
457 11  0
457 -363  0
458 -378 -379  0
-458 378  0
-458 379  0
459 -381 -286  0
-459 381  0
-459 286  0
460 381 286  0
-460 -381  0
-460 -286  0
-461 382 383  0
461 -382  0
461 -383  0
-462 384 385  0
462 -384  0
462 -385  0
-463 386 387  0
463 -386  0
463 -387  0
464 -388 -389  0
-464 388  0
-464 389  0
465 -390 -391  0
-465 390  0
-465 391  0
466 -392 -393  0
-466 392  0
-466 393  0
-467 299 394  0
467 -299  0
467 -394  0
-468 -394 -299  0
468 394  0
468 299  0
469 -395 -396  0
-469 395  0
-469 396  0
-470 397 306  0
470 -397  0
470 -306  0
-471 -397 -306  0
471 397  0
471 306  0
472 -398 -399  0
-472 398  0
-472 399  0
473 -400 -401  0
-473 400  0
-473 401  0
-474 402 403  0
474 -402  0
474 -403  0
475 -404 -315  0
-475 404  0
-475 315  0
476 404 315  0
-476 -404  0
-476 -315  0
-477 405 406  0
477 -405  0
477 -406  0
-478 407 408  0
478 -407  0
478 -408  0
-479 409 410  0
479 -409  0
479 -410  0
-480 411 412  0
480 -411  0
480 -412  0
481 -324 -413  0
-481 324  0
-481 413  0
482 324 413  0
-482 -324  0
-482 -413  0
-483 414 415  0
483 -414  0
483 -415  0
484 -329 -416  0
-484 329  0
-484 416  0
485 329 416  0
-485 -329  0
-485 -416  0
-486 417 418  0
486 -417  0
486 -418  0
-487 419 420  0
487 -419  0
487 -420  0
-488 421 422  0
488 -421  0
488 -422  0
-489 423 424  0
489 -423  0
489 -424  0
-490 425 426  0
490 -425  0
490 -426  0
491 -342 -427  0
-491 342  0
-491 427  0
492 427 342  0
-492 -427  0
-492 -342  0
-493 428 429  0
493 -428  0
493 -429  0
494 -430 -349  0
-494 430  0
-494 349  0
495 430 349  0
-495 -430  0
-495 -349  0
-496 431 432  0
496 -431  0
496 -432  0
-497 433 434  0
497 -433  0
497 -434  0
-498 435 436  0
498 -435  0
498 -436  0
499 -13 -437  0
-499 13  0
-499 437  0
500 13 -438  0
-500 -13  0
-500 438  0
501 13 -439  0
-501 -13  0
-501 439  0
502 -13 -440  0
-502 13  0
-502 440  0
-503 442 251  0
503 -442  0
503 -251  0
504 9 -443  0
-504 -9  0
-504 443  0
505 -9 -444  0
-505 9  0
-505 444  0
-506 9 445  0
506 -9  0
506 -445  0
507 9 -446  0
-507 -9  0
-507 446  0
508 -448 -367  0
-508 448  0
-508 367  0
-509 -4 449  0
509 4  0
509 -449  0
-510 4 449  0
510 -4  0
510 -449  0
-511 264 450  0
511 -264  0
511 -450  0
-512 -264 451  0
512 264  0
512 -451  0
-513 3 452  0
513 -3  0
513 -452  0
-514 -2 453  0
514 2  0
514 -453  0
-515 2 452  0
515 -2  0
515 -452  0
-516 269 454  0
516 -269  0
516 -454  0
-517 455 -269  0
517 -455  0
517 269  0
518 14 -456  0
-518 -14  0
-518 456  0
519 -14 -457  0
-519 14  0
-519 457  0
-520 269 453  0
520 -269  0
520 -453  0
-521 452 -269  0
521 -452  0
521 269  0
-522 3 455  0
522 -3  0
522 -455  0
-523 2 455  0
523 -2  0
523 -455  0
-524 -2 454  0
524 2  0
524 -454  0
-525 459 460  0
525 -459  0
525 -460  0
-526 462 463  0
526 -462  0
526 -463  0
-527 464 465  0
527 -464  0
527 -465  0
528 -467 -468  0
-528 467  0
-528 468  0
529 -470 -471  0
-529 470  0
-529 471  0
-530 472 473  0
530 -472  0
530 -473  0
-531 475 476  0
531 -475  0
531 -476  0
-532 477 478  0
532 -477  0
532 -478  0
533 -479 -480  0
-533 479  0
-533 480  0
-534 481 482  0
534 -481  0
534 -482  0
-535 484 485  0
535 -484  0
535 -485  0
536 -487 -488  0
-536 487  0
-536 488  0
-537 489 490  0
537 -489  0
537 -490  0
-538 491 492  0
538 -491  0
538 -492  0
-539 494 495  0
539 -494  0
539 -495  0
-540 497 498  0
540 -497  0
540 -498  0
-541 499 500  0
541 -499  0
541 -500  0
-542 501 502  0
542 -501  0
542 -502  0
-543 2 503  0
543 -2  0
543 -503  0
-544 -2 503  0
544 2  0
544 -503  0
-545 504 505  0
545 -504  0
545 -505  0
546 -14 -506  0
-546 14  0
-546 506  0
-547 507 447  0
547 -507  0
547 -447  0
548 7 -508  0
-548 -7  0
-548 508  0
549 -7 -508  0
-549 7  0
-549 508  0
550 368 -508  0
-550 -368  0
-550 508  0
551 -5 -509  0
-551 5  0
-551 509  0
552 5 -510  0
-552 -5  0
-552 510  0
553 -511 -512  0
-553 511  0
-553 512  0
554 -514 -515  0
-554 514  0
-554 515  0
555 -516 -517  0
-555 516  0
-555 517  0
-556 518 519  0
556 -518  0
556 -519  0
557 -520 -521  0
-557 520  0
-557 521  0
558 -523 -524  0
-558 523  0
-558 524  0
559 -525 -461  0
-559 525  0
-559 461  0
560 -466 -528  0
-560 466  0
-560 528  0
561 -469 -529  0
-561 469  0
-561 529  0
562 -474 -531  0
-562 474  0
-562 531  0
-563 534 483  0
563 -534  0
563 -483  0
-564 535 486  0
564 -535  0
564 -486  0
565 -538 -493  0
-565 538  0
-565 493  0
566 -539 -496  0
-566 539  0
-566 496  0
567 -12 -541  0
-567 12  0
-567 541  0
568 11 -542  0
-568 -11  0
-568 542  0
569 -11 542  0
-569 11  0
-569 -542  0
570 12 -541  0
-570 -12  0
-570 541  0
571 4 -543  0
-571 -4  0
-571 543  0
572 -4 -544  0
-572 4  0
-572 544  0
573 14 -547  0
-573 -14  0
-573 547  0
-574 551 552  0
574 -551  0
574 -552  0
-575 -3 554  0
575 3  0
575 -554  0
-576 2 555  0
576 -2  0
576 -555  0
-577 -2 555  0
577 2  0
577 -555  0
-578 555 -375  0
578 -555  0
578 375  0
-579 557 -375  0
579 -557  0
579 375  0
-580 2 557  0
580 -2  0
580 -557  0
-581 -3 558  0
581 3  0
581 -558  0
-582 -2 557  0
582 2  0
582 -557  0
583 -559 -526  0
-583 559  0
-583 526  0
584 526 559  0
-584 -526  0
-584 -559  0
585 -527 -560  0
-585 527  0
-585 560  0
586 527 560  0
-586 -527  0
-586 -560  0
587 -561 -530  0
-587 561  0
-587 530  0
588 530 561  0
-588 -530  0
-588 -561  0
589 -562 -532  0
-589 562  0
-589 532  0
590 562 532  0
-590 -562  0
-590 -532  0
-591 533 563  0
591 -533  0
591 -563  0
-592 -563 -533  0
592 563  0
592 533  0
-593 564 536  0
593 -564  0
593 -536  0
-594 -564 -536  0
594 564  0
594 536  0
-595 537 565  0
595 -537  0
595 -565  0
-596 -565 -537  0
596 565  0
596 537  0
-597 566 540  0
597 -566  0
597 -540  0
-598 -566 -540  0
598 566  0
598 540  0
-599 568 569  0
599 -568  0
599 -569  0
-600 571 572  0
600 -571  0
600 -572  0
-601 546 573  0
601 -546  0
601 -573  0
602 -513 -575  0
-602 513  0
-602 575  0
603 -522 -581  0
-603 522  0
-603 581  0
-604 583 584  0
604 -583  0
604 -584  0
-605 585 586  0
605 -585  0
605 -586  0
-606 587 588  0
606 -587  0
606 -588  0
-607 589 590  0
607 -589  0
607 -590  0
608 -591 -592  0
-608 591  0
-608 592  0
609 -593 -594  0
-609 593  0
-609 594  0
610 -595 -596  0
-610 595  0
-610 596  0
611 -597 -598  0
-611 597  0
-611 598  0
612 18 -599  0
-612 -18  0
-612 599  0
613 -18 599  0
-613 18  0
-613 -599  0
614 -441 -600  0
-614 441  0
-614 600  0
615 600 441  0
-615 -600  0
-615 -441  0
616 -7 -601  0
-616 7  0
-616 601  0
617 7 -601  0
-617 -7  0
-617 601  0
-618 -2 602  0
618 2  0
618 -602  0
-619 2 602  0
619 -2  0
619 -602  0
620 -600 -458  0
-620 600  0
-620 458  0
621 600 458  0
-621 -600  0
-621 -458  0
-622 -2 603  0
622 2  0
622 -603  0
-623 2 603  0
623 -2  0
623 -603  0
-624 604 605  0
624 -604  0
624 -605  0
625 -606 -607  0
-625 606  0
-625 607  0
-626 608 609  0
626 -608  0
626 -609  0
627 -610 -611  0
-627 610  0
-627 611  0
-628 612 613  0
628 -612  0
628 -613  0
-629 614 615  0
629 -614  0
629 -615  0
-630 616 548  0
630 -616  0
630 -548  0
-631 617 549  0
631 -617  0
631 -549  0
632 -618 -576  0
-632 618  0
-632 576  0
633 -577 -619  0
-633 577  0
-633 619  0
-634 620 621  0
634 -620  0
634 -621  0
635 -580 -622  0
-635 580  0
-635 622  0
636 -582 -623  0
-636 582  0
-636 623  0
-637 624 625  0
637 -624  0
637 -625  0
-638 -625 -624  0
638 625  0
638 624  0
-639 626 627  0
639 -626  0
639 -627  0
-640 -626 -627  0
640 626  0
640 627  0
641 12 -628  0
-641 -12  0
-641 628  0
642 -12 -628  0
-642 12  0
-642 628  0
-643 -13 629  0
643 13  0
643 -629  0
-644 13 629  0
644 -13  0
644 -629  0
645 -629 359  0
-645 629  0
-645 -359  0
646 -11 -630  0
-646 11  0
-646 630  0
647 11 -631  0
-647 -11  0
-647 631  0
-648 -17 632  0
648 17  0
648 -632  0
-649 17 633  0
649 -17  0
649 -633  0
650 -634 359  0
-650 634  0
-650 -359  0
651 -13 -634  0
-651 13  0
-651 634  0
652 13 -634  0
-652 -13  0
-652 634  0
-653 -17 635  0
653 17  0
653 -635  0
-654 17 636  0
654 -17  0
654 -636  0
655 -637 -638  0
-655 637  0
-655 638  0
656 -639 -640  0
-656 639  0
-656 640  0
-657 567 641  0
657 -567  0
657 -641  0
-658 570 642  0
658 -570  0
658 -642  0
659 -244 -643  0
-659 244  0
-659 643  0
660 -644 244  0
-660 644  0
-660 -244  0
661 -644 -244  0
-661 644  0
-661 244  0
662 244 -643  0
-662 -244  0
-662 643  0
-663 646 647  0
663 -646  0
663 -647  0
664 -648 -649  0
-664 648  0
-664 649  0
665 -244 -651  0
-665 244  0
-665 651  0
666 244 -652  0
-666 -244  0
-666 652  0
667 244 -651  0
-667 -244  0
-667 651  0
668 -244 -652  0
-668 244  0
-668 652  0
669 -653 -654  0
-669 653  0
-669 654  0
670 -655 -656  0
-670 655  0
-670 656  0
671 -235 -657  0
-671 235  0
-671 657  0
672 -658 235  0
-672 658  0
-672 -235  0
-673 659 660  0
673 -659  0
673 -660  0
-674 661 662  0
674 -661  0
674 -662  0
675 -663 -368  0
-675 663  0
-675 368  0
-676 664 375  0
676 -664  0
676 -375  0
-677 665 666  0
677 -665  0
677 -666  0
-678 667 668  0
678 -667  0
678 -668  0
-679 375 669  0
679 -375  0
679 -669  0
-680 671 672  0
680 -671  0
680 -672  0
681 -359 -673  0
-681 359  0
-681 673  0
-682 674 -359  0
682 -674  0
682 359  0
-683 675 550  0
683 -675  0
683 -550  0
684 -676 -578  0
-684 676  0
-684 578  0
685 -359 -677  0
-685 359  0
-685 677  0
686 -678 -380  0
-686 678  0
-686 380  0
687 -579 -679  0
-687 579  0
-687 679  0
-688 681 645  0
688 -681  0
688 -645  0
689 545 -682  0
-689 -545  0
-689 682  0
690 8 -683  0
-690 -8  0
-690 683  0
-691 5 683  0
691 -5  0
691 -683  0
-692 -5 683  0
692 5  0
692 -683  0
693 -8 -683  0
-693 8  0
-693 683  0
-694 650 685  0
694 -650  0
694 -685  0
695 545 -686  0
-695 -545  0
-695 686  0
696 -688 -545  0
-696 688  0
-696 545  0
697 16 -691  0
-697 -16  0
-697 691  0
698 -16 -692  0
-698 16  0
-698 692  0
699 16 -692  0
-699 -16  0
-699 692  0
700 -16 -691  0
-700 16  0
-700 691  0
701 -545 -694  0
-701 545  0
-701 694  0
-702 696 689  0
702 -696  0
702 -689  0
-703 697 698  0
703 -697  0
703 -698  0
-704 699 700  0
704 -699  0
704 -700  0
-705 701 695  0
705 -701  0
705 -695  0
706 -8 -703  0
-706 8  0
-706 703  0
707 8 -703  0
-707 -8  0
-707 703  0
-708 704 371  0
708 -704  0
708 -371  0
-709 690 706  0
709 -690  0
709 -706  0
-710 707 693  0
710 -707  0
710 -693  0
711 -708 574  0
-711 708  0
-711 -574  0
712 17 -709  0
-712 -17  0
-712 709  0
713 -17 -710  0
-713 17  0
-713 710  0
-714 712 713  0
714 -712  0
714 -713  0
715 -714 -574  0
-715 714  0
-715 574  0
-716 715 711  0
716 -715  0
716 -711  0
-717 702 716  0
717 -702  0
717 -716  0
-718 -716 -702  0
718 716  0
718 702  0
-719 716 705  0
719 -716  0
719 -705  0
-720 -716 -705  0
720 716  0
720 705  0
721 -717 -718  0
-721 717  0
-721 718  0
722 -719 -720  0
-722 719  0
-722 720  0
-723 358 721  0
723 -358  0
723 -721  0
-724 -7 721  0
724 7  0
724 -721  0
-725 7 721  0
725 -7  0
725 -721  0
-726 -684 721  0
726 684  0
726 -721  0
727 -7 -722  0
-727 7  0
-727 722  0
728 7 -722  0
-728 -7  0
-728 722  0
-729 722 358  0
729 -722  0
729 -358  0
-730 -684 722  0
730 684  0
730 -722  0
-731 -14 724  0
731 14  0
731 -724  0
-732 14 725  0
732 -14  0
732 -725  0
-733 14 724  0
733 -14  0
733 -724  0
-734 -14 725  0
734 14  0
734 -725  0
-735 14 727  0
735 -14  0
735 -727  0
-736 -14 728  0
736 14  0
736 -728  0
-737 14 728  0
737 -14  0
737 -728  0
-738 -14 727  0
738 14  0
738 -727  0
739 -731 -732  0
-739 731  0
-739 732  0
740 -733 -734  0
-740 733  0
-740 734  0
741 -735 -736  0
-741 735  0
-741 736  0
742 -737 -738  0
-742 737  0
-742 738  0
-743 739 -358  0
743 -739  0
743 358  0
-744 -358 740  0
744 358  0
744 -740  0
745 -377 -741  0
-745 377  0
-745 741  0
-746 742 -358  0
746 -742  0
746 358  0
747 -723 -743  0
-747 723  0
-747 743  0
-748 -553 744  0
748 553  0
748 -744  0
-749 553 744  0
749 -553  0
749 -744  0
-750 745 -553  0
750 -745  0
750 553  0
751 -729 -746  0
-751 729  0
-751 746  0
-752 745 553  0
752 -745  0
752 -553  0
-753 747 553  0
753 -747  0
753 -553  0
-754 747 -553  0
754 -747  0
754 553  0
-755 553 751  0
755 -553  0
755 -751  0
-756 -553 751  0
756 553  0
756 -751  0
757 -753 -748  0
-757 753  0
-757 748  0
758 -754 -749  0
-758 754  0
-758 749  0
759 -750 -755  0
-759 750  0
-759 755  0
760 -756 -752  0
-760 756  0
-760 752  0
-761 757 684  0
761 -757  0
761 -684  0
-762 684 758  0
762 -684  0
762 -758  0
-763 684 759  0
763 -684  0
763 -759  0
764 -760 -687  0
-764 760  0
-764 687  0
765 -761 -726  0
-765 761  0
-765 726  0
-766 15 762  0
766 -15  0
766 -762  0
-767 -15 762  0
767 15  0
767 -762  0
-768 -376 762  0
768 376  0
768 -762  0
769 -763 -730  0
-769 763  0
-769 730  0
-770 -15 764  0
770 15  0
770 -764  0
-771 15 764  0
771 -15  0
771 -764  0
-772 -376 764  0
772 376  0
772 -764  0
-773 -15 765  0
773 15  0
773 -765  0
-774 15 765  0
774 -15  0
774 -765  0
-775 765 -376  0
775 -765  0
775 376  0
-776 -680 765  0
776 680  0
776 -765  0
-777 -680 769  0
777 680  0
777 -769  0
-778 15 769  0
778 -15  0
778 -769  0
-779 -15 769  0
779 15  0
779 -769  0
-780 -376 769  0
780 376  0
780 -769  0
781 -773 -766  0
-781 773  0
-781 766  0
782 -774 -767  0
-782 774  0
-782 767  0
783 -770 -778  0
-783 770  0
-783 778  0
784 -779 -771  0
-784 779  0
-784 771  0
-785 781 -241  0
785 -781  0
785 241  0
-786 782 241  0
786 -782  0
786 -241  0
-787 781 241  0
787 -781  0
787 -241  0
-788 782 -241  0
788 -782  0
788 241  0
-789 783 -241  0
789 -783  0
789 241  0
-790 784 241  0
790 -784  0
790 -241  0
-791 784 -241  0
791 -784  0
791 241  0
-792 783 241  0
792 -783  0
792 -241  0
793 -785 -786  0
-793 785  0
-793 786  0
794 -787 -788  0
-794 787  0
-794 788  0
795 -789 -790  0
-795 789  0
-795 790  0
796 -791 -792  0
-796 791  0
-796 792  0
-797 793 376  0
797 -793  0
797 -376  0
-798 794 376  0
798 -794  0
798 -376  0
-799 795 376  0
799 -795  0
799 -376  0
-800 796 376  0
800 -796  0
800 -376  0
801 -797 -775  0
-801 797  0
-801 775  0
802 -768 -798  0
-802 768  0
-802 798  0
803 -799 -772  0
-803 799  0
-803 772  0
804 -780 -800  0
-804 780  0
-804 800  0
-805 801 556  0
805 -801  0
805 -556  0
-806 802 -556  0
806 -802  0
806 556  0
-807 803 -556  0
807 -803  0
807 556  0
-808 804 556  0
808 -804  0
808 -556  0
809 -805 -806  0
-809 805  0
-809 806  0
810 -807 -808  0
-810 807  0
-810 808  0
-811 680 809  0
811 -680  0
811 -809  0
-812 680 810  0
812 -680  0
812 -810  0
813 -811 -776  0
-813 811  0
-813 776  0
814 -777 -812  0
-814 777  0
-814 812  0
-815 670 813  0
815 -670  0
815 -813  0
-816 -670 814  0
816 670  0
816 -814  0
817 -815 -816  0
-817 815  0
-817 816  0
